%chk=c2h6_059.chk
%mem=100MB

#p b3lyp/6-31+g(d,p) force nosym

c2h6 molecule

0 1
C1
C2 1 d1
H3 1 d2 2 a1
H4 1 d3 2 a2 3 t1
H5 1 d4 2 a3 3 t2
H6 2 d5 1 a4 3 t3
H7 2 d6 1 a5 6 t4
H8 2 d7 1 a6 6 t5


d1=1.53695794937616026e+00
a1=1.11675458815629923e+02
t1=1.07385273407552674e+02
d2=1.09324880918574974e+00
a2=1.04487873905600836e+02
t2=-1.42199097464684769e+02
d3=1.10401405886172554e+00
d4=1.08941384951227005e+00
a3=1.13972672432966206e+02
d5=1.09649182514376342e+00
a4=1.06052045408824540e+02
t3=1.79110581872901122e+02
d6=1.09643619572327444e+00
a5=1.14574531372747671e+02
t4=1.13442714134667440e+02
d7=1.09422587852200603e+00
a6=1.14426822138722144e+02
t5=-1.23116062848005171e+02
