%chk=c2h6_030.chk
%mem=100MB

#p b3lyp/6-31+g(d,p) force nosym

c2h6 molecule

0 1
C1
C2 1 d1
H3 1 d2 2 a1
H4 1 d3 2 a2 3 t1
H5 1 d4 2 a3 3 t2
H6 2 d5 1 a4 3 t3
H7 2 d6 1 a5 6 t4
H8 2 d7 1 a6 6 t5


d1=1.73060498019123021e+00
a1=1.50070342226063474e+02
t1=9.87416867300534591e+01
d2=1.09193237879182603e+00
a2=8.82935932360730504e+01
t2=-1.57610693038377832e+02
d3=1.09514638145792098e+00
d4=1.08534951871635510e+00
a3=8.60969547943683438e+01
d5=1.08758638828036136e+00
a4=9.04108699504478039e+01
t3=1.79829520114510473e+02
d6=1.09264266352887085e+00
a5=9.06023826446537441e+01
t4=1.22379477988017911e+02
d7=1.10267425006212827e+00
a6=1.56067893282470152e+02
t5=-1.20000468485062939e+02
