%chk=c2h6_057.chk
%mem=100MB

#p b3lyp/6-31+g(d,p) force nosym

c2h6 molecule

0 1
C1
C2 1 d1
H3 1 d2 2 a1
H4 1 d3 2 a2 3 t1
H5 1 d4 2 a3 3 t2
H6 2 d5 1 a4 3 t3
H7 2 d6 1 a5 6 t4
H8 2 d7 1 a6 6 t5


d1=1.53997290438096757e+00
a1=1.11253703374815757e+02
t1=1.07338937787472844e+02
d2=1.09342701094345962e+00
a2=1.04572564910908625e+02
t2=-1.42014999123349753e+02
d3=1.10529635144389315e+00
d4=1.08985119336946368e+00
a3=1.13834192858077856e+02
d5=1.09745522020600528e+00
a4=1.06058255903033427e+02
t3=1.78908414475775402e+02
d6=1.09618938086889628e+00
a5=1.14635912837382108e+02
t4=1.13577424137307119e+02
d7=1.09402725951841506e+00
a6=1.14264345807640296e+02
t5=-1.23166974384626130e+02
