%chk=c2h6_058.chk
%mem=100MB

#p b3lyp/6-31+g(d,p) force nosym

c2h6 molecule

0 1
C1
C2 1 d1
H3 1 d2 2 a1
H4 1 d3 2 a2 3 t1
H5 1 d4 2 a3 3 t2
H6 2 d5 1 a4 3 t3
H7 2 d6 1 a5 6 t4
H8 2 d7 1 a6 6 t5


d1=1.53745888987849244e+00
a1=1.11629917690816498e+02
t1=1.07379192407790612e+02
d2=1.09256638011084783e+00
a2=1.04498885451723126e+02
t2=-1.42189789267053044e+02
d3=1.10435235073874982e+00
d4=1.08983948680327303e+00
a3=1.13947501151585584e+02
d5=1.09654952816456874e+00
a4=1.06048718672456559e+02
t3=1.79012838826336861e+02
d6=1.09701901249147538e+00
a5=1.14583115013306909e+02
t4=1.13462417320345736e+02
d7=1.09424978769871206e+00
a6=1.14421907585124202e+02
t5=-1.23124725946554705e+02
