%chk=c2h6_017.chk
%mem=100MB

#p b3lyp/6-31+g(d,p) force nosym

c2h6 molecule

0 1
C1
C2 1 d1
H3 1 d2 2 a1
H4 1 d3 2 a2 3 t1
H5 1 d4 2 a3 3 t2
H6 2 d5 1 a4 3 t3
H7 2 d6 1 a5 6 t4
H8 2 d7 1 a6 6 t5


d1=1.47544120108635179e+00
a1=1.78450480481172832e+02
t1=1.19590857821559254e+02
d2=1.10747203200493094e+00
a2=1.09584514827380431e+02
t2=-1.78588546575436055e+02
d3=1.20020576070910767e+00
d4=1.16314462431671539e+00
a3=1.08547220166870773e+02
d5=1.10941752516804093e+00
a4=1.08635089260425843e+02
t3=1.79997062294495862e+02
d6=1.11671369940177501e+00
a5=1.08636595748697772e+02
t4=1.20067849610887379e+02
d7=1.19157605998444249e+00
a6=1.78587920462040586e+02
t5=-1.19999998257256294e+02
