%chk=c2h6_014.chk
%mem=100MB

#p b3lyp/6-31+g(d,p) force nosym

c2h6 molecule

0 1
C1
C2 1 d1
H3 1 d2 2 a1
H4 1 d3 2 a2 3 t1
H5 1 d4 2 a3 3 t2
H6 2 d5 1 a4 3 t3
H7 2 d6 1 a5 6 t4
H8 2 d7 1 a6 6 t5


d1=1.43317159626860025e+00
a1=1.78274211008897964e+02
t1=1.19457014220896127e+02
d2=1.09573280955799768e+00
a2=1.09447164224508867e+02
t2=-1.78454090095566329e+02
d3=1.25960348957899804e+00
d4=1.13558330455078904e+00
a3=1.08397425481071252e+02
d5=1.10787776357526058e+00
a4=1.08512747082533309e+02
t3=1.79996107608018463e+02
d6=1.10821353842379722e+00
a5=1.08514359833732016e+02
t4=1.20094747603743443e+02
d7=1.35789428220654074e+00
a6=1.78460743902569334e+02
t5=-1.19999998257894219e+02
