%chk=c2h6_047.chk
%mem=100MB

#p b3lyp/6-31+g(d,p) force nosym

c2h6 molecule

0 1
C1
C2 1 d1
H3 1 d2 2 a1
H4 1 d3 2 a2 3 t1
H5 1 d4 2 a3 3 t2
H6 2 d5 1 a4 3 t3
H7 2 d6 1 a5 6 t4
H8 2 d7 1 a6 6 t5


d1=1.56860997441555727e+00
a1=1.32146082647217412e+02
t1=1.04429283461962513e+02
d2=1.10211277371476668e+00
a2=9.21896622303407440e+01
t2=-1.50576407580340316e+02
d3=1.11968504043307560e+00
d4=1.09148267660655485e+00
a3=1.17655915514132474e+02
d5=1.10189887473166714e+00
a4=9.97970495075038286e+01
t3=1.79349979213249725e+02
d6=1.09078761665112967e+00
a5=1.06020357337477392e+02
t4=1.03717620112868332e+02
d7=1.08226954990256230e+00
a6=1.18550466965462959e+02
t5=-1.20003793845437556e+02
