%chk=c2h6_039.chk
%mem=100MB

#p b3lyp/6-31+g(d,p) force nosym

c2h6 molecule

0 1
C1
C2 1 d1
H3 1 d2 2 a1
H4 1 d3 2 a2 3 t1
H5 1 d4 2 a3 3 t2
H6 2 d5 1 a4 3 t3
H7 2 d6 1 a5 6 t4
H8 2 d7 1 a6 6 t5


d1=1.49101213160880741e+00
a1=1.33172793107928726e+02
t1=1.03858617263765098e+02
d2=1.09121588527305535e+00
a2=9.16043145824495326e+01
t2=-1.50888187745324814e+02
d3=1.05595604680499999e+00
d4=1.08519800885199347e+00
a3=1.15638575402552718e+02
d5=1.09114482984801309e+00
a4=9.89953179666158434e+01
t3=1.79342863819349361e+02
d6=1.09098563353289935e+00
a5=1.04838911600418342e+02
t4=1.04711180593668274e+02
d7=1.07179052768489336e+00
a6=1.20577631061043476e+02
t5=-1.19965173472089958e+02
