%chk=c2h6_050.chk
%mem=100MB

#p b3lyp/6-31+g(d,p) force nosym

c2h6 molecule

0 1
C1
C2 1 d1
H3 1 d2 2 a1
H4 1 d3 2 a2 3 t1
H5 1 d4 2 a3 3 t2
H6 2 d5 1 a4 3 t3
H7 2 d6 1 a5 6 t4
H8 2 d7 1 a6 6 t5


d1=1.55879167857568057e+00
a1=1.30164246755602903e+02
t1=1.06015365301693407e+02
d2=1.12516299900381944e+00
a2=9.58084083958900550e+01
t2=-1.50292383954663222e+02
d3=1.16125613627464053e+00
d4=1.08126102470809426e+00
a3=1.16996458287173652e+02
d5=1.11286411850972611e+00
a4=1.01780806278748983e+02
t3=1.79942702759827114e+02
d6=1.08918847148211984e+00
a5=1.08252991962632223e+02
t4=1.06295958069432899e+02
d7=1.06364163600555828e+00
a6=1.20359972355736943e+02
t5=-1.20651939314871214e+02
