%chk=c2h6_005.chk
%mem=100MB

#p b3lyp/6-31+g(d,p) force nosym

c2h6 molecule

0 1
C1
C2 1 d1
H3 1 d2 2 a1
H4 1 d3 2 a2 3 t1
H5 1 d4 2 a3 3 t2
H6 2 d5 1 a4 3 t3
H7 2 d6 1 a5 6 t4
H8 2 d7 1 a6 6 t5


d1=3.59547153237261297e+00
a1=1.09000745654284913e+02
t1=1.20000022174684275e+02
d2=1.09327695752389320e+00
a2=1.10000562407574563e+02
t2=-1.19999989365066554e+02
d3=1.09157484804239790e+00
d4=1.08967383310418464e+00
a3=1.09000671484222266e+02
d5=1.09291804919233648e+00
a4=1.09000758562004734e+02
t3=1.79999998254670743e+02
d6=1.09093317734947592e+00
a5=1.09000682119155698e+02
t4=1.20000018684025775e+02
d7=1.08938967822939237e+00
a6=1.09000681077102598e+02
t5=-1.20000014490091118e+02
