%chk=c2h6_012.chk
%mem=100MB

#p b3lyp/6-31+g(d,p) force nosym

c2h6 molecule

0 1
C1
C2 1 d1
H3 1 d2 2 a1
H4 1 d3 2 a2 3 t1
H5 1 d4 2 a3 3 t2
H6 2 d5 1 a4 3 t3
H7 2 d6 1 a5 6 t4
H8 2 d7 1 a6 6 t5


d1=1.00000000000000000e+00
a1=1.08993216099582639e+02
t1=1.20000024501962869e+02
d2=1.10654048171153230e+00
a2=1.09992858156635521e+02
t2=-1.19999856231575095e+02
d3=1.11475171272325202e+00
d4=1.11919880706950359e+00
a3=1.08993128538996388e+02
d5=1.10680741808436056e+00
a4=1.08993379473088723e+02
t3=1.79999998255013082e+02
d6=1.11716257763097615e+00
a5=1.08993279409365471e+02
t4=1.20000021153616288e+02
d7=1.11900405017042703e+00
a6=1.08993270396525276e+02
t5=-1.20000016008086391e+02
