%chk=c2h6_006.chk
%mem=100MB

#p b3lyp/6-31+g(d,p) force nosym

c2h6 molecule

0 1
C1
C2 1 d1
H3 1 d2 2 a1
H4 1 d3 2 a2 3 t1
H5 1 d4 2 a3 3 t2
H6 2 d5 1 a4 3 t3
H7 2 d6 1 a5 6 t4
H8 2 d7 1 a6 6 t5


d1=3.55295273966081915e+00
a1=1.09000147006351483e+02
t1=1.20000020429355018e+02
d2=1.09006442651900204e+00
a2=1.09999949797007119e+02
t2=-1.19999977147761797e+02
d3=1.09081895839418830e+00
d4=1.09099663998855156e+00
a3=1.09000071090959580e+02
d5=1.08970551818744532e+00
a4=1.09000170386046818e+02
t3=1.79999998254670743e+02
d6=1.09036626011331861e+00
a5=1.09000093943197783e+02
t4=1.20000016938696518e+02
d7=1.09071248511375929e+00
a6=1.09000091155815426e+02
t5=-1.20000012744761861e+02
