%chk=c2h6_015.chk
%mem=100MB

#p b3lyp/6-31+g(d,p) force nosym

c2h6 molecule

0 1
C1
C2 1 d1
H3 1 d2 2 a1
H4 1 d3 2 a2 3 t1
H5 1 d4 2 a3 3 t2
H6 2 d5 1 a4 3 t3
H7 2 d6 1 a5 6 t4
H8 2 d7 1 a6 6 t5


d1=1.69274358959477711e+00
a1=1.09041509972105459e+02
t1=1.20000011485820593e+02
d2=1.00000000000000000e+00
a2=1.10042123833800488e+02
t2=-1.20000681784849846e+02
d3=1.00000000000000000e+00
d4=1.00000000000000000e+00
a3=1.09041432311940198e+02
d5=1.00000000000000000e+00
a4=1.09040698570160259e+02
t3=1.79999998252464394e+02
d6=1.00000000000000000e+00
a5=1.09040711172284361e+02
t4=1.20000007724650061e+02
d7=1.00000000000000000e+00
a6=1.09040730983642661e+02
t5=-1.20000003648473381e+02
