%chk=c2h6_031.chk
%mem=100MB

#p b3lyp/6-31+g(d,p) force nosym

c2h6 molecule

0 1
C1
C2 1 d1
H3 1 d2 2 a1
H4 1 d3 2 a2 3 t1
H5 1 d4 2 a3 3 t2
H6 2 d5 1 a4 3 t3
H7 2 d6 1 a5 6 t4
H8 2 d7 1 a6 6 t5


d1=1.53692996594570608e+00
a1=1.09227172829599994e+02
t1=1.20000079551710712e+02
d2=1.08922712758593554e+00
a2=1.10163622149802947e+02
t2=-1.19982729580878484e+02
d3=1.09064273290081304e+00
d4=1.09549898816094715e+00
a3=1.09227140832866198e+02
d5=1.09438747389936997e+00
a4=1.09236743055478783e+02
t3=1.79999998253362605e+02
d6=1.08988360302151799e+00
a5=1.09237000231686594e+02
t4=1.20000024508007272e+02
d7=1.09598923653982583e+00
a6=1.09225119519555037e+02
t5=-1.20000018819590608e+02
