%chk=c2h6_023.chk
%mem=100MB

#p b3lyp/6-31+g(d,p) force nosym

c2h6 molecule

0 1
C1
C2 1 d1
H3 1 d2 2 a1
H4 1 d3 2 a2 3 t1
H5 1 d4 2 a3 3 t2
H6 2 d5 1 a4 3 t3
H7 2 d6 1 a5 6 t4
H8 2 d7 1 a6 6 t5


d1=1.54690945760955811e+00
a1=1.09016617121176637e+02
t1=1.20000030527643872e+02
d2=1.09438197167704865e+00
a2=1.10016453017046018e+02
t2=-1.20000179023254645e+02
d3=1.09431285749601725e+00
d4=1.09451326937614191e+00
a3=1.09016523950479339e+02
d5=1.09405511047422976e+00
a4=1.09016368335033533e+02
t3=1.79999998253782934e+02
d6=1.09421685854248252e+00
a5=1.09016312365040548e+02
t4=1.20000024141236608e+02
d7=1.09404819028214617e+00
a6=1.09016268847185529e+02
t5=-1.20000018990739633e+02
