%chk=c2h6_029.chk
%mem=100MB

#p b3lyp/6-31+g(d,p) force nosym

c2h6 molecule

0 1
C1
C2 1 d1
H3 1 d2 2 a1
H4 1 d3 2 a2 3 t1
H5 1 d4 2 a3 3 t2
H6 2 d5 1 a4 3 t3
H7 2 d6 1 a5 6 t4
H8 2 d7 1 a6 6 t5


d1=1.54093811099826783e+00
a1=1.09105388810912174e+02
t1=1.20000045756405427e+02
d2=1.08983831121541108e+00
a2=1.10078586378832327e+02
t2=-1.19992847791826989e+02
d3=1.09176140732610438e+00
d4=1.09476181823202290e+00
a3=1.09105323409930321e+02
d5=1.09362440615650214e+00
a4=1.09109268215786855e+02
t3=1.79999998253593134e+02
d6=1.09190588967112268e+00
a5=1.09109353882369120e+02
t4=1.20000024256534729e+02
d7=1.09442871425299759e+00
a6=1.09104325826465015e+02
t5=-1.20000018877176771e+02
