%chk=c2h6_021.chk
%mem=100MB

#p b3lyp/6-31+g(d,p) force nosym

c2h6 molecule

0 1
C1
C2 1 d1
H3 1 d2 2 a1
H4 1 d3 2 a2 3 t1
H5 1 d4 2 a3 3 t2
H6 2 d5 1 a4 3 t3
H7 2 d6 1 a5 6 t4
H8 2 d7 1 a6 6 t5


d1=1.54699399129351778e+00
a1=1.09016501341711333e+02
t1=1.20000030638414003e+02
d2=1.09425374379600027e+00
a2=1.10016369454039165e+02
t2=-1.20000187413169485e+02
d3=1.09439130902861037e+00
d4=1.09451825834802463e+00
a3=1.09016409996708859e+02
d5=1.09411205848418880e+00
a4=1.09016248147356592e+02
t3=1.79999998253783673e+02
d6=1.09436698843825897e+00
a5=1.09016192039214459e+02
t4=1.20000024251870755e+02
d7=1.09406485713303447e+00
a6=1.09016154255530509e+02
t5=-1.20000019101952958e+02
