%chk=c2h6_009.chk
%mem=100MB

#p b3lyp/6-31+g(d,p) force nosym

c2h6 molecule

0 1
C1
C2 1 d1
H3 1 d2 2 a1
H4 1 d3 2 a2 3 t1
H5 1 d4 2 a3 3 t2
H6 2 d5 1 a4 3 t3
H7 2 d6 1 a5 6 t4
H8 2 d7 1 a6 6 t5


d1=2.06512023397703048e+00
a1=1.08979600453277740e+02
t1=1.20000018449758343e+02
d2=1.16933867349156562e+00
a2=1.09978983851597093e+02
t2=-1.19999618968667662e+02
d3=1.19170946917515330e+00
d4=1.20168246975211535e+00
a3=1.08979523170262169e+02
d5=1.17113503523128681e+00
a4=1.08980036952413357e+02
t3=1.79999998255569949e+02
d6=1.19716482408277902e+00
a5=1.08979924386900947e+02
t4=1.20000014960898284e+02
d7=1.20155067578535535e+00
a6=1.08979898544750071e+02
t5=-1.20000011893794081e+02
