%chk=c2h6_035.chk
%mem=100MB

#p b3lyp/6-31+g(d,p) force nosym

c2h6 molecule

0 1
C1
C2 1 d1
H3 1 d2 2 a1
H4 1 d3 2 a2 3 t1
H5 1 d4 2 a3 3 t2
H6 2 d5 1 a4 3 t3
H7 2 d6 1 a5 6 t4
H8 2 d7 1 a6 6 t5


d1=1.52220660472490033e+00
a1=1.10763853199847517e+02
t1=1.20000534204706284e+02
d2=1.09002016596829510e+00
a2=1.11236282655384684e+02
t2=-1.19854963323804796e+02
d3=1.08792194867354719e+00
d4=1.09725476723776572e+00
a3=1.10764208551050004e+02
d5=1.09371287859782651e+00
a4=1.10845129243549763e+02
t3=1.79999998250484396e+02
d6=1.08579564184573574e+00
a5=1.10847564263989199e+02
t4=1.20000046595730382e+02
d7=1.09822187312331065e+00
a6=1.10749184609258521e+02
t5=-1.19999977929322370e+02
