%chk=c2h6_039.chk
%mem=100MB

#p b3lyp/6-31+g(d,p) force nosym

c2h6 molecule

0 1
C1
C2 1 d1
H3 1 d2 2 a1
H4 1 d3 2 a2 3 t1
H5 1 d4 2 a3 3 t2
H6 2 d5 1 a4 3 t3
H7 2 d6 1 a5 6 t4
H8 2 d7 1 a6 6 t5


d1=1.53072823121290091e+00
a1=1.11444714294598100e+02
t1=1.20000759111963418e+02
d2=1.09586979537569196e+00
a2=1.11711119272480076e+02
t2=-1.19798222263045261e+02
d3=1.09481299063737869e+00
d4=1.09624420850417614e+00
a3=1.11445234143697562e+02
d5=1.09575084490298402e+00
a4=1.11557784403885350e+02
t3=1.79999998249266412e+02
d6=1.09448048435897261e+00
a5=1.11561172322217956e+02
t4=1.20000060825995874e+02
d7=1.09597193679627458e+00
a6=1.11424415270258947e+02
t5=-1.19999947031691022e+02
