%chk=c2h6_036.chk
%mem=100MB

#p b3lyp/6-31+g(d,p) force nosym

c2h6 molecule

0 1
C1
C2 1 d1
H3 1 d2 2 a1
H4 1 d3 2 a2 3 t1
H5 1 d4 2 a3 3 t2
H6 2 d5 1 a4 3 t3
H7 2 d6 1 a5 6 t4
H8 2 d7 1 a6 6 t5


d1=1.52351907894359950e+00
a1=1.11068894055503193e+02
t1=1.20000633514735057e+02
d2=1.09177102671975246e+00
a2=1.11449088167453297e+02
t2=-1.19829566020141257e+02
d3=1.08979180831691336e+00
d4=1.09675415311884406e+00
a3=1.11069324839774495e+02
d5=1.09439158953461102e+00
a4=1.11164409736707114e+02
t3=1.79999998249929064e+02
d6=1.08823743745156620e+00
a5=1.11167273267827923e+02
t4=1.20000052989439595e+02
d7=1.09754246226734353e+00
a6=1.11051710479855558e+02
t5=-1.19999965386454505e+02
