%chk=c2h6_029.chk
%mem=100MB

#p b3lyp/6-31+g(d,p) force nosym

c2h6 molecule

0 1
C1
C2 1 d1
H3 1 d2 2 a1
H4 1 d3 2 a2 3 t1
H5 1 d4 2 a3 3 t2
H6 2 d5 1 a4 3 t3
H7 2 d6 1 a5 6 t4
H8 2 d7 1 a6 6 t5


d1=1.73387934363863594e+00
a1=1.50138626699025934e+02
t1=9.87877627619531609e+01
d2=1.09257392896698646e+00
a2=8.83411016782441436e+01
t2=-1.57659825569334970e+02
d3=1.09787619580169693e+00
d4=1.08540447231049519e+00
a3=8.61409304202001636e+01
d5=1.08754194313156360e+00
a4=9.04501875091905987e+01
t3=1.79830019653774656e+02
d6=1.09252164182799816e+00
a5=9.06399447046104427e+01
t4=1.22378383672759611e+02
d7=1.10246960855388254e+00
a6=1.56127260296570881e+02
t5=-1.20000475547321543e+02
