%chk=c2h6_021.chk
%mem=100MB

#p b3lyp/6-31+g(d,p) force nosym

c2h6 molecule

0 1
C1
C2 1 d1
H3 1 d2 2 a1
H4 1 d3 2 a2 3 t1
H5 1 d4 2 a3 3 t2
H6 2 d5 1 a4 3 t3
H7 2 d6 1 a5 6 t4
H8 2 d7 1 a6 6 t5


d1=1.47601866956881800e+00
a1=1.74747909412655531e+02
t1=1.16869598217124690e+02
d2=1.14476955203577302e+00
a2=1.06806251153093896e+02
t2=-1.75851547761625056e+02
d3=1.29487307415089514e+00
d4=1.12833293375200250e+00
a3=1.05612684544915098e+02
d5=1.10861327011232635e+00
a4=1.06255607021158013e+02
t3=1.79975299604892371e+02
d6=1.14974700168582800e+00
a5=1.06281267212410967e+02
t4=1.20372447918456615e+02
d7=1.03562882469635298e+00
a6=1.75653892106338873e+02
t5=-1.20000032339517858e+02
