%chk=c2h6_032.chk
%mem=100MB

#p b3lyp/6-31+g(d,p) force nosym

c2h6 molecule

0 1
C1
C2 1 d1
H3 1 d2 2 a1
H4 1 d3 2 a2 3 t1
H5 1 d4 2 a3 3 t2
H6 2 d5 1 a4 3 t3
H7 2 d6 1 a5 6 t4
H8 2 d7 1 a6 6 t5


d1=1.71385635109015144e+00
a1=1.50127135926675578e+02
t1=9.88179409642233253e+01
d2=1.09027719905902765e+00
a2=8.83676339467803587e+01
t2=-1.57663987227977287e+02
d3=1.08937678811420757e+00
d4=1.08556817276926321e+00
a3=8.62264511946212906e+01
d5=1.08755263147359238e+00
a4=9.04855321248374196e+01
t3=1.79829069934631264e+02
d6=1.09316827377798842e+00
a5=9.06875975376903796e+01
t4=1.22337395650849714e+02
d7=1.10365953110950099e+00
a6=1.56069514611620264e+02
t5=-1.20000396783363357e+02
