%chk=c2h6_007.chk
%mem=100MB

#p b3lyp/6-31+g(d,p) force nosym

c2h6 molecule

0 1
C1
C2 1 d1
H3 1 d2 2 a1
H4 1 d3 2 a2 3 t1
H5 1 d4 2 a3 3 t2
H6 2 d5 1 a4 3 t3
H7 2 d6 1 a5 6 t4
H8 2 d7 1 a6 6 t5


d1=3.41487845361784270e+00
a1=1.78984810399519887e+02
t1=1.19989884071655439e+02
d2=1.13374585421677687e+00
a2=1.09991032498303255e+02
t2=-1.78989629253584667e+02
d3=1.17264309542201883e+00
d4=1.16273884080140255e+00
a3=1.08989644961547896e+02
d5=1.10672279929328132e+00
a4=1.08992400836436829e+02
t3=1.79999926696171457e+02
d6=1.10650275120367292e+00
a5=1.08992313569974215e+02
t4=1.20000994837673645e+02
d7=1.17086465451965660e+00
a6=1.78987885669661893e+02
t5=-1.19999998254670743e+02
