%chk=c2h6_025.chk
%mem=100MB

#p b3lyp/6-31+g(d,p) force nosym

c2h6 molecule

0 1
C1
C2 1 d1
H3 1 d2 2 a1
H4 1 d3 2 a2 3 t1
H5 1 d4 2 a3 3 t2
H6 2 d5 1 a4 3 t3
H7 2 d6 1 a5 6 t4
H8 2 d7 1 a6 6 t5


d1=1.73353782361690301e+00
a1=1.47835713107298574e+02
t1=9.70908224162490683e+01
d2=1.10180534458964052e+00
a2=8.66087228168501326e+01
t2=-1.55955496451071411e+02
d3=1.10120896582573113e+00
d4=1.11157369223226365e+00
a3=8.43065165717313221e+01
d5=1.08474512374677778e+00
a4=8.89649521351917230e+01
t3=1.79816509462776821e+02
d6=1.07951805120159028e+00
a5=8.91685739775078332e+01
t4=1.22572899742017242e+02
d7=1.11074242808687851e+00
a6=1.54307631132496056e+02
t5=-1.20000531272045023e+02
