%chk=c2h6_009.chk
%mem=100MB

#p b3lyp/6-31+g(d,p) force nosym

c2h6 molecule

0 1
C1
C2 1 d1
H3 1 d2 2 a1
H4 1 d3 2 a2 3 t1
H5 1 d4 2 a3 3 t2
H6 2 d5 1 a4 3 t3
H7 2 d6 1 a5 6 t4
H8 2 d7 1 a6 6 t5


d1=1.00000000000000000e+00
a1=1.78202670298468178e+02
t1=1.19401292964299003e+02
d2=1.31819628208158179e+00
a2=1.09387742884209544e+02
t2=-1.78398089607134153e+02
d3=1.00000000000000000e+00
d4=1.13003767468741367e+00
a3=1.08335652567220137e+02
d5=1.04730816413212158e+00
a4=1.08460352012310054e+02
t3=1.79995719624578811e+02
d6=1.09347743377249418e+00
a5=1.08461771430734061e+02
t4=1.20107530448066115e+02
d7=1.59562210396512016e+00
a6=1.78410301343352444e+02
t5=-1.19999998257375680e+02
