%chk=c2h6_053.chk
%mem=100MB

#p b3lyp/6-31+g(d,p) force nosym

c2h6 molecule

0 1
C1
C2 1 d1
H3 1 d2 2 a1
H4 1 d3 2 a2 3 t1
H5 1 d4 2 a3 3 t2
H6 2 d5 1 a4 3 t3
H7 2 d6 1 a5 6 t4
H8 2 d7 1 a6 6 t5


d1=1.53627893409772764e+00
a1=1.12063334050400670e+02
t1=1.08135330675656718e+02
d2=1.10743113907855806e+00
a2=1.05675012519572562e+02
t2=-1.42707889817119565e+02
d3=1.13639575921469826e+00
d4=1.08413781739268411e+00
a3=1.14095388239600240e+02
d5=1.10467703938502915e+00
a4=1.06784890193040439e+02
t3=1.79229454693226728e+02
d6=1.09542914855603901e+00
a5=1.15326712634521300e+02
t4=1.14055416865213758e+02
d7=1.08073782550892217e+00
a6=1.15617147396763997e+02
t5=-1.23254793336618178e+02
