%chk=c2h6_011.chk
%mem=100MB

#p b3lyp/6-31+g(d,p) force nosym

c2h6 molecule

0 1
C1
C2 1 d1
H3 1 d2 2 a1
H4 1 d3 2 a2 3 t1
H5 1 d4 2 a3 3 t2
H6 2 d5 1 a4 3 t3
H7 2 d6 1 a5 6 t4
H8 2 d7 1 a6 6 t5


d1=1.01813788220658363e+00
a1=1.78268789474929235e+02
t1=1.19451747963880237e+02
d2=1.19448146556354273e+00
a2=1.09440726460630003e+02
t2=-1.78448810101345430e+02
d3=1.05002521807527160e+00
d4=1.12684090389190805e+00
a3=1.08391605987114431e+02
d5=1.10041948943069623e+00
a4=1.08506976300954918e+02
t3=1.79996071265992612e+02
d6=1.10669006703144102e+00
a5=1.08508399804483290e+02
t4=1.20097553638623395e+02
d7=1.46601214778150823e+00
a6=1.78458595916393335e+02
t5=-1.19999998257513397e+02
