%chk=c2h6_028.chk
%mem=100MB

#p b3lyp/6-31+g(d,p) force nosym

c2h6 molecule

0 1
C1
C2 1 d1
H3 1 d2 2 a1
H4 1 d3 2 a2 3 t1
H5 1 d4 2 a3 3 t2
H6 2 d5 1 a4 3 t3
H7 2 d6 1 a5 6 t4
H8 2 d7 1 a6 6 t5


d1=1.54431674098394778e+00
a1=1.09044236091195074e+02
t1=1.20000032585330757e+02
d2=1.09106028883554074e+00
a2=1.10035809808371724e+02
t2=-1.19997905844499016e+02
d3=1.09342979835533760e+00
d4=1.09431809266283953e+00
a3=1.09044154083884678e+02
d5=1.09407094582641040e+00
a4=1.09045270005829536e+02
t3=1.79999998253720406e+02
d6=1.09428562734126178e+00
a5=1.09045264249087367e+02
t4=1.20000024170501959e+02
d7=1.09407925203838419e+00
a6=1.09043668120483332e+02
t5=-1.20000018947722026e+02
