%chk=c2h6_004.chk
%mem=100MB

#p b3lyp/6-31+g(d,p) force nosym

c2h6 molecule

0 1
C1
C2 1 d1
H3 1 d2 2 a1
H4 1 d3 2 a2 3 t1
H5 1 d4 2 a3 3 t2
H6 2 d5 1 a4 3 t3
H7 2 d6 1 a5 6 t4
H8 2 d7 1 a6 6 t5


d1=3.54848194893890190e+00
a1=1.09000085521133343e+02
t1=1.20000020943951029e+02
d2=1.09179397874114059e+00
a2=1.09999888298927871e+02
t2=-1.19999977310719714e+02
d3=1.09214084788768906e+00
d4=1.09206315869379855e+00
a3=1.09000010471975514e+02
d5=1.09141603391703579e+00
a4=1.09000111701072143e+02
t3=1.79999998254670743e+02
d6=1.09176290306358426e+00
a5=1.09000033161255786e+02
t4=1.20000017453292529e+02
d7=1.09187418628174604e+00
a6=1.09000031415926543e+02
t5=-1.20000013962634014e+02
