%chk=c2h6_020.chk
%mem=100MB

#p b3lyp/6-31+g(d,p) force nosym

c2h6 molecule

0 1
C1
C2 1 d1
H3 1 d2 2 a1
H4 1 d3 2 a2 3 t1
H5 1 d4 2 a3 3 t2
H6 2 d5 1 a4 3 t3
H7 2 d6 1 a5 6 t4
H8 2 d7 1 a6 6 t5


d1=1.54754609370627438e+00
a1=1.09016179447519690e+02
t1=1.20000030663566690e+02
d2=1.09555543645639131e+00
a2=1.10016105147853949e+02
t2=-1.20000203410431780e+02
d3=1.09471787241074847e+00
d4=1.09445946026287988e+00
a3=1.09016086270727783e+02
d5=1.09521600200771640e+00
a4=1.09015917948142032e+02
t3=1.79999998253789869e+02
d6=1.09430189675187717e+00
a5=1.09015861605065865e+02
t4=1.20000024275253878e+02
d7=1.09400296938129427e+00
a6=1.09015834665326338e+02
t5=-1.20000019124656646e+02
